c colouring generated by benchmark framework
p edge 300 21375
v 1 9
v 2 33
v 3 28
v 4 21
v 5 46
v 6 32
v 7 16
v 8 3
v 9 3
v 10 38
v 11 48
v 12 37
v 13 14
v 14 0
v 15 16
v 16 8
v 17 5
v 18 5
v 19 18
v 20 24
v 21 44
v 22 35
v 23 25
v 24 38
v 25 13
v 26 50
v 27 19
v 28 11
v 29 5
v 30 9
v 31 30
v 32 21
v 33 12
v 34 14
v 35 29
v 36 15
v 37 23
v 38 44
v 39 3
v 40 7
v 41 40
v 42 41
v 43 49
v 44 22
v 45 0
v 46 16
v 47 25
v 48 2
v 49 35
v 50 48
v 51 13
v 52 36
v 53 10
v 54 7
v 55 12
v 56 3
v 57 24
v 58 20
v 59 47
v 60 22
v 61 8
v 62 3
v 63 41
v 64 25
v 65 24
v 66 13
v 67 6
v 68 42
v 69 4
v 70 27
v 71 2
v 72 37
v 73 11
v 74 28
v 75 51
v 76 26
v 77 9
v 78 47
v 79 6
v 80 32
v 81 2
v 82 12
v 83 6
v 84 40
v 85 8
v 86 34
v 87 50
v 88 17
v 89 1
v 90 7
v 91 12
v 92 14
v 93 1
v 94 38
v 95 3
v 96 10
v 97 34
v 98 4
v 99 25
v 100 1
v 101 0
v 102 40
v 103 26
v 104 37
v 105 52
v 106 39
v 107 37
v 108 19
v 109 29
v 110 6
v 111 6
v 112 7
v 113 2
v 114 31
v 115 23
v 116 25
v 117 32
v 118 1
v 119 45
v 120 4
v 121 44
v 122 16
v 123 17
v 124 49
v 125 24
v 126 21
v 127 41
v 128 14
v 129 44
v 130 1
v 131 36
v 132 28
v 133 20
v 134 16
v 135 29
v 136 47
v 137 21
v 138 29
v 139 10
v 140 23
v 141 14
v 142 27
v 143 35
v 144 19
v 145 33
v 146 51
v 147 1
v 148 22
v 149 37
v 150 41
v 151 27
v 152 11
v 153 26
v 154 4
v 155 45
v 156 5
v 157 38
v 158 39
v 159 35
v 160 10
v 161 40
v 162 6
v 163 24
v 164 25
v 165 18
v 166 31
v 167 23
v 168 27
v 169 15
v 170 15
v 171 42
v 172 39
v 173 22
v 174 3
v 175 5
v 176 10
v 177 46
v 178 40
v 179 9
v 180 35
v 181 9
v 182 3
v 183 43
v 184 16
v 185 2
v 186 8
v 187 9
v 188 10
v 189 38
v 190 43
v 191 46
v 192 15
v 193 26
v 194 40
v 195 30
v 196 2
v 197 25
v 198 7
v 199 11
v 200 2
v 201 33
v 202 42
v 203 44
v 204 27
v 205 23
v 206 7
v 207 17
v 208 0
v 209 36
v 210 20
v 211 13
v 212 20
v 213 18
v 214 17
v 215 36
v 216 28
v 217 30
v 218 32
v 219 30
v 220 15
v 221 24
v 222 27
v 223 48
v 224 20
v 225 4
v 226 1
v 227 39
v 228 30
v 229 33
v 230 5
v 231 17
v 232 11
v 233 8
v 234 13
v 235 20
v 236 30
v 237 15
v 238 32
v 239 15
v 240 0
v 241 36
v 242 5
v 243 31
v 244 1
v 245 26
v 246 18
v 247 7
v 248 8
v 249 24
v 250 47
v 251 12
v 252 35
v 253 31
v 254 43
v 255 16
v 256 24
v 257 34
v 258 4
v 259 40
v 260 31
v 261 11
v 262 23
v 263 14
v 264 52
v 265 12
v 266 19
v 267 21
v 268 41
v 269 10
v 270 34
v 271 22
v 272 10
v 273 6
v 274 6
v 275 13
v 276 5
v 277 14
v 278 39
v 279 18
v 280 37
v 281 0
v 282 16
v 283 19
v 284 28
v 285 12
v 286 18
v 287 1
v 288 19
v 289 43
v 290 14
v 291 17
v 292 26
v 293 22
v 294 18
v 295 20
v 296 23
v 297 20
v 298 15
v 299 36
v 300 14
